(declare-fun Constructed_Argument_t () String)
(declare-fun CreateAsClass () Bool)
(declare-fun ExpandObjSwitcher () Real)
(declare-fun Constructed_Argument_2_t () String)
(assert (= Constructed_Argument_t "string"))
(assert CreateAsClass)
(assert (not (= ExpandObjSwitcher 0.0)))
(assert (not (= ExpandObjSwitcher 1.0)))
(assert (not (= ExpandObjSwitcher 2.0)))
(assert (not (= ExpandObjSwitcher 3.0)))
(assert (= ExpandObjSwitcher 4.0))
(assert (not (= Constructed_Argument_2_t "string")))
(assert (= Constructed_Argument_2_t "number"))
(check-sat)
